
Gurobi 7.0.2 (linux64) logging started Mon Jun 12 15:33:30 2017

Changed value of parameter logfile to result/NEIS-20170612T0949/scenario_100000PVS30PVWE10var-cost0075.log
   Prev: gurobi.log  Default: 
Optimize a model with 1059933 rows, 937229 columns and 3979188 nonzeros
Coefficient statistics:
  Matrix range     [8e-04, 1e+05]
  Objective range  [1e+00, 1e+00]
  Bounds range     [0e+00, 0e+00]
  RHS range        [3e-03, 1e+05]

Concurrent LP optimizer: primal simplex, dual simplex, and barrier
Showing barrier log only...

Presolve removed 594694 rows and 643281 columns
Presolve time: 2.84s
Presolved: 465239 rows, 293948 columns, 1347043 nonzeros

Ordering time: 0.40s

Barrier statistics:
 Dense cols : 21
 AA' NZ     : 1.881e+06
 Factor NZ  : 6.959e+06 (roughly 400 MBytes of memory)
 Factor Ops : 1.640e+08 (less than 1 second per iteration)
 Threads    : 22

                  Objective                Residual
Iter       Primal          Dual         Primal    Dual     Compl     Time
   0   3.86574457e+11 -2.66484553e+11  9.53e+02 6.93e+03  2.20e+07     4s
   1   3.06106565e+11 -9.69706995e+10  7.05e+02 1.33e+04  7.03e+06     5s
   2   2.98857439e+11 -6.88524501e+10  6.91e+02 8.97e+03  5.68e+06     5s
   3   2.08273312e+11 -1.16898684e+11  4.79e+02 1.94e+03  5.33e+06     6s
   4   3.84618227e+10 -1.14258300e+11  6.30e+01 1.65e+02  8.43e+05     7s
   5   3.99787554e+09 -5.92019943e+10  5.17e+00 3.15e+00  1.26e+05     7s
   6   5.24334947e+08 -1.61219097e+10  3.20e-01 6.72e-06  2.42e+04     8s
   7   2.51177806e+08 -2.38758283e+09  4.76e-02 2.64e-06  3.69e+03     8s
   8   1.40496569e+08 -1.01842741e+09  9.68e-03 1.18e-06  1.61e+03     9s
   9   8.72670027e+07 -1.64105063e+08  8.35e-04 6.50e-07  3.47e+02     9s
  10   8.45099480e+07 -2.10873231e+07  7.78e-04 9.80e-08  1.46e+02    10s
  11   6.41057966e+07 -1.56371901e+07  5.48e-04 8.69e-08  1.10e+02    10s
  12   4.86300715e+07 -1.22535236e+07  3.52e-04 7.24e-08  8.41e+01    11s
  13   4.34740880e+07  2.16990520e+06  2.95e-04 3.06e-08  5.70e+01    11s
  14   2.79829106e+07  9.76996285e+06  1.37e-04 8.03e-09  2.52e+01    12s
  15   2.41908431e+07  1.07524840e+07  1.03e-04 1.22e-09  1.86e+01    12s
  16   2.14550952e+07  1.19370896e+07  7.78e-05 1.90e-10  1.31e+01    13s
  17   1.92018451e+07  1.24371090e+07  5.61e-05 1.31e-10  9.34e+00    13s
  18   1.82909532e+07  1.28349944e+07  4.74e-05 1.98e-09  7.53e+00    14s
  19   1.71706071e+07  1.30149608e+07  3.63e-05 4.54e-09  5.74e+00    14s
  20   1.62898208e+07  1.31942292e+07  2.71e-05 2.15e-09  4.27e+00    15s
  21   1.56981012e+07  1.33195141e+07  2.09e-05 5.94e-09  3.28e+00    15s
  22   1.51070137e+07  1.34556533e+07  1.49e-05 1.17e-08  2.28e+00    16s
  23   1.47449022e+07  1.35107649e+07  1.10e-05 1.19e-08  1.70e+00    16s
  24   1.44697960e+07  1.35729430e+07  8.11e-06 1.44e-08  1.24e+00    17s
  25   1.41851974e+07  1.36077358e+07  5.23e-06 1.48e-08  7.97e-01    18s
  26   1.40472691e+07  1.36302957e+07  3.77e-06 1.60e-08  5.76e-01    18s
  27   1.39600728e+07  1.36396169e+07  2.83e-06 1.32e-08  4.43e-01    19s
  28   1.39233765e+07  1.36531307e+07  2.43e-06 1.59e-08  3.73e-01    19s
  29   1.38729656e+07  1.36608992e+07  1.89e-06 1.26e-08  2.93e-01    19s
  30   1.38110986e+07  1.36684163e+07  1.27e-06 8.50e-09  1.97e-01    20s
  31   1.37832903e+07  1.36735008e+07  9.64e-07 9.37e-09  1.52e-01    21s
  32   1.37593527e+07  1.36811967e+07  7.07e-07 4.48e-09  1.08e-01    21s
  33   1.37388566e+07  1.36835506e+07  5.01e-07 2.97e-09  7.64e-02    22s
  34   1.37269674e+07  1.36850494e+07  3.87e-07 3.03e-09  5.79e-02    22s
  35   1.37188020e+07  1.36860346e+07  2.96e-07 8.85e-09  4.52e-02    23s
  36   1.37154550e+07  1.36868017e+07  2.60e-07 1.28e-08  3.96e-02    23s
  37   1.37100651e+07  1.36876033e+07  2.00e-07 1.07e-08  3.10e-02    24s
  38   1.37042659e+07  1.36883694e+07  1.38e-07 1.08e-08  2.20e-02    24s
  39   1.37023056e+07  1.36892465e+07  1.16e-07 1.14e-08  1.80e-02    24s
  40   1.37007436e+07  1.36895642e+07  9.92e-08 5.82e-09  1.54e-02    25s
  41   1.36983985e+07  1.36900141e+07  7.58e-08 1.07e-08  1.16e-02    26s
  42   1.36962297e+07  1.36903426e+07  5.37e-08 7.51e-09  8.13e-03    26s
  43   1.36958109e+07  1.36904745e+07  4.89e-08 3.49e-09  7.37e-03    26s
  44   1.36954913e+07  1.36905877e+07  4.53e-08 3.11e-09  6.77e-03    27s
  45   1.36953717e+07  1.36906353e+07  4.40e-08 3.05e-09  6.54e-03    27s
  46   1.36952123e+07  1.36906664e+07  4.23e-08 2.86e-09  6.28e-03    28s
  47   1.36948770e+07  1.36907135e+07  3.85e-08 2.60e-09  5.75e-03    28s
  48   1.36946217e+07  1.36908252e+07  3.58e-08 3.09e-09  5.24e-03    29s
  49   1.36938717e+07  1.36908957e+07  2.83e-08 2.66e-09  4.11e-03    29s
  50   1.36937340e+07  1.36909266e+07  2.67e-08 2.55e-09  3.88e-03    30s
  51   1.36936037e+07  1.36909621e+07  2.52e-08 2.31e-09  3.65e-03    30s
  52   1.36935625e+07  1.36909978e+07  2.47e-08 5.24e-09  3.54e-03    31s
  53   1.36934384e+07  1.36910474e+07  2.33e-08 9.49e-09  3.30e-03    31s
  54   1.36932471e+07  1.36910722e+07  2.13e-08 2.02e-08  3.00e-03    32s
  55   1.36931726e+07  1.36910927e+07  2.04e-08 2.25e-08  2.87e-03    32s
  56   1.36930660e+07  1.36911067e+07  1.93e-08 2.00e-08  2.71e-03    33s
  57   1.36929891e+07  1.36911236e+07  1.84e-08 2.63e-08  2.58e-03    33s
  58   1.36928208e+07  1.36911548e+07  1.66e-08 3.33e-08  2.30e-03    34s
  59   1.36927161e+07  1.36911772e+07  1.54e-08 2.04e-08  2.13e-03    34s
  60   1.36926685e+07  1.36911802e+07  1.48e-08 2.14e-08  2.06e-03    34s
  61   1.36926318e+07  1.36912187e+07  1.44e-08 8.22e-10  1.95e-03    35s
  62   1.36919504e+07  1.36912620e+07  6.69e-09 3.64e-09  9.51e-04    36s
  63   1.36919137e+07  1.36912839e+07  6.27e-09 5.36e-09  8.70e-04    36s
  64   1.36917969e+07  1.36913011e+07  4.97e-09 2.43e-09  6.85e-04    37s
  65   1.36916691e+07  1.36913225e+07  3.46e-09 1.89e-08  4.79e-04    37s
  66   1.36916026e+07  1.36913366e+07  2.65e-09 1.35e-08  3.67e-04    38s
  67   1.36915711e+07  1.36913523e+07  2.27e-09 7.64e-09  3.02e-04    38s
  68   1.36915086e+07  1.36913568e+07  1.50e-09 6.02e-09  2.10e-04    39s
  69   1.36914970e+07  1.36913601e+07  1.44e-09 3.48e-08  1.89e-04    40s
  70   1.36914675e+07  1.36913624e+07  9.54e-07 4.42e-09  1.45e-04    41s
  71   1.36914653e+07  1.36913629e+07  9.29e-07 8.44e-09  1.41e-04    42s
  72   1.36914525e+07  1.36913642e+07  7.82e-07 9.31e-09  1.22e-04    42s
  73   1.36914310e+07  1.36913680e+07  5.50e-07 9.43e-09  8.70e-05    43s
  74   1.36914295e+07  1.36913688e+07  5.35e-07 8.50e-09  8.38e-05    43s
  75   1.36914279e+07  1.36913696e+07  5.18e-07 1.02e-08  8.05e-05    44s
  76   1.36914192e+07  1.36913714e+07  9.63e-07 6.23e-09  6.60e-05    44s
  77   1.36914097e+07  1.36913722e+07  1.18e-06 9.55e-09  5.19e-05    45s
  78   1.36914057e+07  1.36913737e+07  1.03e-06 8.79e-09  4.42e-05    46s
  79   1.36914057e+07  1.36913737e+07  1.03e-06 8.44e-09  4.42e-05    46s
  80   1.36914057e+07  1.36913737e+07  1.03e-06 6.98e-09  4.41e-05    47s
  81   1.36913946e+07  1.36913748e+07  6.93e-07 3.26e-09  2.73e-05    48s
  82   1.36913946e+07  1.36913748e+07  7.13e-07 5.82e-10  2.73e-05    49s
  83   1.36913946e+07  1.36913748e+07  7.12e-07 2.68e-09  2.73e-05    50s
  84   1.36913946e+07  1.36913748e+07  7.12e-07 2.18e-11  2.73e-05    50s
  85   1.36913946e+07  1.36913748e+07  9.37e-07 2.84e-10  2.73e-05    51s
  86   1.36913946e+07  1.36913748e+07  1.37e-06 1.60e-10  2.73e-05    52s
  87   1.36913946e+07  1.36913748e+07  1.61e-06 1.60e-10  2.73e-05    53s
  88   1.36913946e+07  1.36913748e+07  1.61e-06 4.07e-10  2.73e-05    54s
  89   1.36913946e+07  1.36913748e+07  1.61e-06 2.85e-09  2.73e-05    55s
  90   1.36913946e+07  1.36913748e+07  1.61e-06 2.91e-10  2.73e-05    56s
  91   1.36913946e+07  1.36913748e+07  1.61e-06 4.95e-10  2.73e-05    56s

Barrier performed 91 iterations in 56.44 seconds
Sub-optimal termination - objective 1.36913946e+07

Crossover log...

  190147 DPushes remaining with DInf 0.0000000e+00                57s
   60175 DPushes remaining with DInf 0.0000000e+00                60s
   51631 DPushes remaining with DInf 0.0000000e+00                65s
   44867 DPushes remaining with DInf 0.0000000e+00                70s
   39171 DPushes remaining with DInf 0.0000000e+00                75s
   29559 DPushes remaining with DInf 0.0000000e+00                80s
   21342 DPushes remaining with DInf 0.0000000e+00                85s
   11803 DPushes remaining with DInf 0.0000000e+00                90s
       0 DPushes remaining with DInf 2.2205041e-09                95s

  167696 PPushes remaining with PInf 1.3016950e-02                95s
   29910 PPushes remaining with PInf 1.3720298e-01                99s
    1026 PPushes remaining with PInf 1.6396281e-02               100s
       0 PPushes remaining with PInf 2.8421331e-04               101s

  Push phase complete: Pinf 2.8421331e-04, Dinf 1.4086725e+03    101s

Iteration    Objective       Primal Inf.    Dual Inf.      Time
  357049    1.3691377e+07   0.000000e+00   1.408672e+03    101s
  357216    1.3691377e+07   0.000000e+00   0.000000e+00    103s

Solved with barrier
Solved in 357216 iterations and 102.87 seconds
Optimal objective  1.369137703e+07
